p tw 224 441
1 79
1 80
1 120
1 121
1 171
1 172
2 90
2 181
2 182
3 97
3 98
3 106
3 107
4 110
4 111
4 213
4 214
4 223
4 224
5 65
5 66
5 161
5 162
5 209
5 210
6 76
6 77
6 167
6 168
7 135
7 136
7 183
8 108
8 109
8 143
8 144
9 94
9 95
9 189
10 36
10 142
10 143
11 81
11 82
11 175
11 176
12 75
12 126
12 191
12 192
13 98
13 107
13 137
13 138
14 111
14 112
14 214
14 215
15 112
15 113
15 224
16 146
16 147
16 204
16 205
17 78
17 79
17 172
17 173
18 134
18 217
18 218
19 135
19 193
19 194
20 60
20 153
20 154
21 72
21 100
21 101
22 96
22 97
22 105
22 106
22 128
22 129
22 158
22 159
23 85
23 86
23 115
24 123
24 124
24 179
24 180
25 62
25 63
25 126
25 127
25 155
25 156
25 192
25 193
25 219
26 38
26 118
26 119
26 138
26 139
26 184
27 148
27 149
27 156
27 157
27 205
27 206
28 129
28 130
28 176
28 177
28 197
28 198
29 173
29 174
29 221
29 222
30 109
30 110
30 196
30 197
31 71
31 72
31 89
31 90
31 99
31 100
31 119
31 120
31 181
32 86
32 87
32 115
32 116
32 203
32 204
33 69
33 70
33 130
33 131
33 165
33 166
33 199
33 200
34 92
34 93
34 186
34 187
35 144
35 145
35 185
35 198
35 199
36 67
36 68
36 140
36 141
36 163
36 164
36 195
36 196
37 63
37 64
37 149
37 150
37 159
37 160
37 190
37 207
37 208
38 117
38 118
38 136
38 137
38 183
38 184
39 74
39 104
39 114
39 124
39 125
39 133
39 134
39 216
39 217
40 60
40 61
40 153
40 191
41 73
41 74
41 93
41 103
41 104
41 113
41 114
41 122
41 123
41 145
41 188
42 131
42 132
42 180
43 64
43 65
43 150
43 151
43 160
43 161
43 208
43 209
44 61
44 62
44 146
44 154
44 155
44 202
45 91
45 185
45 186
46 68
46 69
46 152
46 164
46 165
46 212
46 213
47 91
47 92
47 121
47 122
47 187
47 188
47 200
47 201
48 108
48 133
48 182
49 71
49 88
49 89
49 99
50 95
50 116
50 117
50 147
50 148
50 157
50 158
50 219
50 220
51 66
51 67
51 151
51 152
51 162
51 163
51 210
51 211
52 77
52 78
52 169
52 170
53 96
53 105
53 218
54 83
54 84
54 177
54 178
55 73
55 102
55 103
56 85
56 202
56 203
57 84
57 125
57 132
57 201
58 94
58 189
58 190
59 75
59 76
59 127
59 128
59 167
59 194
59 195
60 61
61 62
62 63
63 64
64 65
65 66
66 67
67 68
68 69
69 70
70 166
71 72
73 74
75 76
76 77
77 78
78 79
79 80
80 81
81 82
82 83
83 84
85 86
86 87
87 88
88 89
89 90
91 92
92 93
94 95
96 97
97 98
99 100
100 101
101 102
102 103
103 104
105 106
106 107
108 109
109 110
110 111
111 112
112 113
113 114
115 116
116 117
117 118
118 119
119 120
120 121
121 122
122 123
123 124
124 125
126 127
127 128
128 129
129 130
130 131
131 132
133 134
135 136
136 137
137 138
138 139
139 140
140 141
141 142
142 143
143 144
144 145
146 147
147 148
148 149
149 150
150 151
151 152
153 154
154 155
155 156
156 157
157 158
158 159
159 160
160 161
161 162
162 163
163 164
164 165
165 166
167 168
168 169
169 170
170 171
171 172
172 173
173 174
174 175
175 176
176 177
177 178
178 179
179 180
181 182
183 184
185 186
186 187
187 188
189 190
191 192
192 193
193 194
194 195
195 196
196 197
197 198
198 199
199 200
200 201
202 203
203 204
204 205
205 206
206 207
207 208
208 209
209 210
210 211
211 212
212 213
213 214
214 215
215 216
216 217
217 218
219 220
220 221
221 222
222 223
223 224
